nNurses = 133;
nHours = 28;
minHours = 7;
maxHours = 18;
maxConsec = 8;
maxPresence = 16;
demand = [41, 38, 34, 31, 33, 32, 29, 30, 35, 33, 38, 40, 37, 33, 38, 43, 41, 45, 45, 42, 43, 43, 39, 36, 33, 31, 33, 28];
